\ENCODING=ISO-8859-1
\Problem name: IloCplex

Minimize
 obj1: 10 tp(0) + 10 tm(0) + 10 tp(1) + 10 tm(1) + 10 tp(2) + 10 tm(2)
       + 10 tp(3) + 10 tm(3) + 10 tp(4) + 10 tm(4) + 10 tp(5) + 10 tm(5)
       + 10 tp(6) + 10 tm(6) + 10 tp(7) + 10 tm(7) + 10 tp(8) + 10 tm(8)
       + 10 tp(9) + 10 tm(9) + 10 tp(10) + 10 tm(10) + 10 tp(11) + 10 tm(11)
       + 10 tp(12) + 10 tm(12) + 10 tp(13) + 10 tm(13) + 10 tp(14) + 10 tm(14)
       + 10 tp(15) + 10 tm(15) + 10 tp(16) + 10 tm(16) + 10 tp(17) + 10 tm(17)
       + 10 tp(18) + 10 tm(18) + 10 tp(19) + 10 tm(19) + 10 tp(20) + 10 tm(20)
       + 10 tp(21) + 10 tm(21) + 10 tp(22) + 10 tm(22) + 10 tp(23) + 10 tm(23)
       + 10 tp(24) + 10 tm(24) + 10 tp(25) + 10 tm(25) + 10 tp(26) + 10 tm(26)
       + 10 tp(27) + 10 tm(27) + 10 tp(28) + 10 tm(28) + 10 tp(29) + 10 tm(29)
       + 10 tp(30) + 10 tm(30) + 10 tp(31) + 10 tm(31) + 10 tp(32) + 10 tm(32)
       + 10 tp(33) + 10 tm(33) + 10 tp(34) + 10 tm(34) + 10 tp(35) + 10 tm(35)
       + 10 tp(36) + 10 tm(36) + 10 tp(37) + 10 tm(37) + 10 tp(38) + 10 tm(38)
       + 10 tp(39) + 10 tm(39) + 10 tp(40) + 10 tm(40) + 10 tp(41) + 10 tm(41)
       + 10 tp(42) + 10 tm(42) + 10 tp(43) + 10 tm(43) + 10 tp(44) + 10 tm(44)
       + 10 tp(45) + 10 tm(45) + 10 tp(46) + 10 tm(46) + 10 tp(47) + 10 tm(47)
       + 10 tp(48) + 10 tm(48) + 10 tp(49) + 10 tm(49) + [ w(8) ^2 + w(7) ^2
       + w(6) ^2 + w(5) ^2 + w(4) ^2 + w(3) ^2 + w(2) ^2 + w(1) ^2 + w(0) ^2
       ] / 2
Subject To
 c1:   - 0.50944061 w(8) - 0.77852372 w(7) - 1.19432058 w(6) + 0.20078378 w(5)
       + 8.41257979 w(4) - 9.64147309 w(3) + 12.18864024 w(2)
       + 11.27476365 w(1) + 11.08841645 w(0) + z - pp(0) <= -5.38976361
 c2:   0.50944061 w(8) + 0.77852372 w(7) + 1.19432058 w(6) - 0.20078378 w(5)
       - 8.41257979 w(4) + 9.64147309 w(3) - 12.18864024 w(2)
       - 11.27476365 w(1) - 11.08841645 w(0) - z - pm(0) <= 5.78976361
 c3:   tp(0) - pp(0) <= 0
 c4:   tp(0) - 16 s(0) <= 0
 c5:   tp(0) - pp(0) - 16 s(0) >= -16
 c6:   tm(0) - pm(0) <= 0
 c7:   tm(0) - 255 s(0) <= 0
 c8:   tm(0) - pm(0) - 255 s(0) >= -255
 c9:   - 0.48882783 w(8) - 1.16987479 w(7) - 2.41831422 w(6) - 0.25923805 w(5)
       - 8.88976869 w(4) + 11.84096593 w(3) + 7.23392355 w(2)
       + 10.44227868 w(1) + 10.01757619 w(0) + z - pp(1) <= -10.18997154
 c10:  0.48882783 w(8) + 1.16987479 w(7) + 2.41831422 w(6) + 0.25923805 w(5)
       + 8.88976869 w(4) - 11.84096593 w(3) - 7.23392355 w(2)
       - 10.44227868 w(1) - 10.01757619 w(0) - z - pm(1) <= 10.58997154
 c11:  tp(1) - pp(1) <= 0
 c12:  tp(1) - 16 s(1) <= 0
 c13:  tp(1) - pp(1) - 16 s(1) >= -16
 c14:  tm(1) - pm(1) <= 0
 c15:  tm(1) - 255 s(1) <= 0
 c16:  tm(1) - pm(1) - 255 s(1) >= -255
 c17:  - 2.39108561 w(8) - 0.34373146 w(7) - 0.29698408 w(6) + 0.36088903 w(5)
       + 0.08860292 w(4) - 0.43830085 w(3) + 0.88493344 w(2) + 0.28546624 w(1)
       + 1.6127013 w(0) + z - pp(2) <= 2.53666779
 c18:  2.39108561 w(8) + 0.34373146 w(7) + 0.29698408 w(6) - 0.36088903 w(5)
       - 0.08860292 w(4) + 0.43830085 w(3) - 0.88493344 w(2) - 0.28546624 w(1)
       - 1.6127013 w(0) - z - pm(2) <= -2.13666779
 c19:  tp(2) - pp(2) <= 0
 c20:  tp(2) - 16 s(2) <= 0
 c21:  tp(2) - pp(2) - 16 s(2) >= -16
 c22:  tm(2) - pm(2) <= 0
 c23:  tm(2) - 255 s(2) <= 0
 c24:  tm(2) - pm(2) - 255 s(2) >= -255
 c25:  - 0.36245384 w(8) - 0.28270819 w(7) + 1.83705542 w(6) - 1.44327198 w(5)
       + 1.97578942 w(4) + 0.12715488 w(3) - 0.01457566 w(2) - 0.02899683 w(1)
       + 0.8817575 w(0) + z - pp(3) <= 0.94133274
 c26:  0.36245384 w(8) + 0.28270819 w(7) - 1.83705542 w(6) + 1.44327198 w(5)
       - 1.97578942 w(4) - 0.12715488 w(3) + 0.01457566 w(2) + 0.02899683 w(1)
       - 0.8817575 w(0) - z - pm(3) <= -0.54133274
 c27:  tp(3) - pp(3) <= 0
 c28:  tp(3) - 16 s(3) <= 0
 c29:  tp(3) - pp(3) - 16 s(3) >= -16
 c30:  tm(3) - pm(3) <= 0
 c31:  tm(3) - 255 s(3) <= 0
 c32:  tm(3) - pm(3) - 255 s(3) >= -255
 c33:  0.25179746 w(8) - 1.72684283 w(7) + 0.56279327 w(6) + 0.00574677 w(5)
       + 1.26859411 w(4) + 0.94480445 w(3) - 0.32137366 w(2) + 0.24534706 w(1)
       - 0.14212462 w(0) + z - pp(4) <= 1.32274023
 c34:  - 0.25179746 w(8) + 1.72684283 w(7) - 0.56279327 w(6) - 0.00574677 w(5)
       - 1.26859411 w(4) - 0.94480445 w(3) + 0.32137366 w(2) - 0.24534706 w(1)
       + 0.14212462 w(0) - z - pm(4) <= -0.92274023
 c35:  tp(4) - pp(4) <= 0
 c36:  tp(4) - 16 s(4) <= 0
 c37:  tp(4) - pp(4) - 16 s(4) >= -16
 c38:  tm(4) - pm(4) <= 0
 c39:  tm(4) - 255 s(4) <= 0
 c40:  tm(4) - pm(4) - 255 s(4) >= -255
 c41:  0.01834841 w(8) - 0.84628692 w(7) + 0.21769646 w(6) + 2.53948198 w(5)
       + 0.55165471 w(4) - 1.15491088 w(3) - 0.46821251 w(2) - 0.11172031 w(1)
       - 2.20700706 w(0) + z - pp(5) <= -0.39780558
 c42:  - 0.01834841 w(8) + 0.84628692 w(7) - 0.21769646 w(6) - 2.53948198 w(5)
       - 0.55165471 w(4) + 1.15491088 w(3) + 0.46821251 w(2) + 0.11172031 w(1)
       + 2.20700706 w(0) - z - pm(5) <= 0.79780558
 c43:  tp(5) - pp(5) <= 0
 c44:  tp(5) - 16 s(5) <= 0
 c45:  tp(5) - pp(5) - 16 s(5) >= -16
 c46:  tm(5) - pm(5) <= 0
 c47:  tm(5) - 255 s(5) <= 0
 c48:  tm(5) - pm(5) - 255 s(5) >= -255
 c49:  0.04841198 w(8) - 1.55513148 w(7) + 0.26401557 w(6) - 1.1608511 w(5)
       + 0.37238654 w(4) + 0.99596671 w(3) - 0.29679543 w(2) - 2.05003505 w(1)
       + 1.14691731 w(0) + z - pp(6) <= -0.56757653
 c50:  - 0.04841198 w(8) + 1.55513148 w(7) - 0.26401557 w(6) + 1.1608511 w(5)
       - 0.37238654 w(4) - 0.99596671 w(3) + 0.29679543 w(2) + 2.05003505 w(1)
       - 1.14691731 w(0) - z - pm(6) <= 0.96757653
 c51:  tp(6) - pp(6) <= 0
 c52:  tp(6) - 16 s(6) <= 0
 c53:  tp(6) - pp(6) - 16 s(6) >= -16
 c54:  tm(6) - pm(6) <= 0
 c55:  tm(6) - 255 s(6) <= 0
 c56:  tm(6) - pm(6) - 255 s(6) >= -255
 c57:  - 0.42607113 w(8) - 1.31805265 w(7) - 0.06628759 w(6) + 0.3882319 w(5)
       + 2.51228456 w(4) + 0.29188859 w(3) + 1.16002548 w(2) + 1.2959699 w(1)
       + 1.12630415 w(0) + z - pp(7) <= 8.25975201
 c58:  0.42607113 w(8) + 1.31805265 w(7) + 0.06628759 w(6) - 0.3882319 w(5)
       - 2.51228456 w(4) - 0.29188859 w(3) - 1.16002548 w(2) - 1.2959699 w(1)
       - 1.12630415 w(0) - z - pm(7) <= -7.85975201
 c59:  tp(7) - pp(7) <= 0
 c60:  tp(7) - 16 s(7) <= 0
 c61:  tp(7) - pp(7) - 16 s(7) >= -16
 c62:  tm(7) - pm(7) <= 0
 c63:  tm(7) - 255 s(7) <= 0
 c64:  tm(7) - pm(7) - 255 s(7) >= -255
 c65:  - 0.32757344 w(8) - 0.71509709 w(7) - 1.13298922 w(6) - 0.4789038 w(5)
       - 0.73615683 w(4) - 2.47087249 w(3) + 0.60991416 w(2) + 1.13255006 w(1)
       - 1.12802967 w(0) + z - pp(8) <= -2.97212017
 c66:  0.32757344 w(8) + 0.71509709 w(7) + 1.13298922 w(6) + 0.4789038 w(5)
       + 0.73615683 w(4) + 2.47087249 w(3) - 0.60991416 w(2) - 1.13255006 w(1)
       + 1.12802967 w(0) - z - pm(8) <= 3.37212017
 c67:  tp(8) - pp(8) <= 0
 c68:  tp(8) - 16 s(8) <= 0
 c69:  tp(8) - pp(8) - 16 s(8) >= -16
 c70:  tm(8) - pm(8) <= 0
 c71:  tm(8) - 255 s(8) <= 0
 c72:  tm(8) - pm(8) - 255 s(8) >= -255
 c73:  - 1.20740041 w(8) - 0.813415152 w(7) - 0.0957841171 w(6)
       + 0.454533634 w(5) + 0.475029918 w(4) + 0.000115294259 w(3)
       + 0.738148976 w(2) - 0.362794923 w(1) + 0.0736966523 w(0) + z - pp(9)
       <= 2.25058998
 c74:  1.20740041 w(8) + 0.813415152 w(7) + 0.0957841171 w(6)
       - 0.454533634 w(5) - 0.475029918 w(4) - 0.000115294259 w(3)
       - 0.738148976 w(2) + 0.362794923 w(1) - 0.0736966523 w(0) - z - pm(9)
       <= -1.85058998
 c75:  tp(9) - pp(9) <= 0
 c76:  tp(9) - 16 s(9) <= 0
 c77:  tp(9) - pp(9) - 16 s(9) >= -16
 c78:  tm(9) - pm(9) <= 0
 c79:  tm(9) - 255 s(9) <= 0
 c80:  tm(9) - pm(9) - 255 s(9) >= -255
 c81:  0.5792837 w(8) + 0.79902239 w(7) - 0.18568698 w(6) - 2.33608688 w(5)
       + 0.28363008 w(4) - 0.14249112 w(3) - 0.32148461 w(2) + 1.55227745 w(1)
       + 1.15424805 w(0) + z - pp(10) <= 0.26894451
 c82:  - 0.5792837 w(8) - 0.79902239 w(7) + 0.18568698 w(6) + 2.33608688 w(5)
       - 0.28363008 w(4) + 0.14249112 w(3) + 0.32148461 w(2) - 1.55227745 w(1)
       - 1.15424805 w(0) - z - pm(10) <= 0.13105549
 c83:  tp(10) - pp(10) <= 0
 c84:  tp(10) - 16 s(10) <= 0
 c85:  tp(10) - pp(10) - 16 s(10) >= -16
 c86:  tm(10) - pm(10) <= 0
 c87:  tm(10) - 255 s(10) <= 0
 c88:  tm(10) - pm(10) - 255 s(10) >= -255
 c89:  - 0.5991627 w(8) + 1.86869458 w(7) - 0.41782444 w(6) + 0.7362648 w(5)
       + 0.78940605 w(4) + 0.05035632 w(3) + 0.54555107 w(2) - 0.75899577 w(1)
       - 0.15616616 w(0) + z - pp(11) <= 1.03170236
 c90:  0.5991627 w(8) - 1.86869458 w(7) + 0.41782444 w(6) - 0.7362648 w(5)
       - 0.78940605 w(4) - 0.05035632 w(3) - 0.54555107 w(2) + 0.75899577 w(1)
       + 0.15616616 w(0) - z - pm(11) <= -0.63170236
 c91:  tp(11) - pp(11) <= 0
 c92:  tp(11) - 16 s(11) <= 0
 c93:  tp(11) - pp(11) - 16 s(11) >= -16
 c94:  tm(11) - pm(11) <= 0
 c95:  tm(11) - 255 s(11) <= 0
 c96:  tm(11) - pm(11) - 255 s(11) >= -255
 c97:  0.25805437 w(8) - 1.14225377 w(7) - 0.56519086 w(6) + 0.5696263 w(5)
       + 0.1302939 w(4) - 0.19657189 w(3) + 0.76335456 w(2) - 0.48102715 w(1)
       + 0.47841858 w(0) + z - pp(12) <= 2.62200385
 c98:  - 0.25805437 w(8) + 1.14225377 w(7) + 0.56519086 w(6) - 0.5696263 w(5)
       - 0.1302939 w(4) + 0.19657189 w(3) - 0.76335456 w(2) + 0.48102715 w(1)
       - 0.47841858 w(0) - z - pm(12) <= -2.22200385
 c99:  tp(12) - pp(12) <= 0
 c100: tp(12) - 16 s(12) <= 0
 c101: tp(12) - pp(12) - 16 s(12) >= -16
 c102: tm(12) - pm(12) <= 0
 c103: tm(12) - 255 s(12) <= 0
 c104: tm(12) - pm(12) - 255 s(12) >= -255
 c105: 0.98150062 w(8) + 0.57545625 w(7) - 0.17729534 w(6) - 1.85700522 w(5)
       + 0.1566758 w(4) - 0.77230596 w(3) + 0.36401902 w(2) - 0.29403749 w(1)
       - 0.90491431 w(0) + z - pp(13) <= -4.32206636
 c106: - 0.98150062 w(8) - 0.57545625 w(7) + 0.17729534 w(6) + 1.85700522 w(5)
       - 0.1566758 w(4) + 0.77230596 w(3) - 0.36401902 w(2) + 0.29403749 w(1)
       + 0.90491431 w(0) - z - pm(13) <= 4.72206636
 c107: tp(13) - pp(13) <= 0
 c108: tp(13) - 16 s(13) <= 0
 c109: tp(13) - pp(13) - 16 s(13) >= -16
 c110: tm(13) - pm(13) <= 0
 c111: tm(13) - 255 s(13) <= 0
 c112: tm(13) - pm(13) - 255 s(13) >= -255
 c113: - 1.85836915 w(8) - 0.00568497 w(7) - 0.89443497 w(6) - 0.56987873 w(5)
       + 0.13685774 w(4) - 0.28765274 w(3) + 1.06477123 w(2) + 1.75406321 w(1)
       - 0.79892401 w(0) + z - pp(14) <= 1.14277108
 c114: 1.85836915 w(8) + 0.00568497 w(7) + 0.89443497 w(6) + 0.56987873 w(5)
       - 0.13685774 w(4) + 0.28765274 w(3) - 1.06477123 w(2) - 1.75406321 w(1)
       + 0.79892401 w(0) - z - pm(14) <= -0.74277108
 c115: tp(14) - pp(14) <= 0
 c116: tp(14) - 16 s(14) <= 0
 c117: tp(14) - pp(14) - 16 s(14) >= -16
 c118: tm(14) - pm(14) <= 0
 c119: tm(14) - 255 s(14) <= 0
 c120: tm(14) - pm(14) - 255 s(14) >= -255
 c121: - 0.36463254 w(8) + 1.96527618 w(7) - 0.24821967 w(6) - 0.1183937 w(5)
       - 0.68622712 w(4) + 1.04126552 w(3) - 0.71413185 w(2) + 0.0893969 w(1)
       + 0.55701021 w(0) + z - pp(15) <= -0.06449736
 c122: 0.36463254 w(8) - 1.96527618 w(7) + 0.24821967 w(6) + 0.1183937 w(5)
       + 0.68622712 w(4) - 1.04126552 w(3) + 0.71413185 w(2) - 0.0893969 w(1)
       - 0.55701021 w(0) - z - pm(15) <= 0.46449736
 c123: tp(15) - pp(15) <= 0
 c124: tp(15) - 16 s(15) <= 0
 c125: tp(15) - pp(15) - 16 s(15) >= -16
 c126: tm(15) - pm(15) <= 0
 c127: tm(15) - 255 s(15) <= 0
 c128: tm(15) - pm(15) - 255 s(15) >= -255
 c129: - 0.49043902 w(8) - 0.85236357 w(7) - 2.09336592 w(6) + 1.6187611 w(5)
       + 0.39468138 w(4) + 1.04971249 w(3) - 0.30777589 w(2) - 0.54983728 w(1)
       + 0.20373369 w(0) + z - pp(16) <= 3.15853102
 c130: 0.49043902 w(8) + 0.85236357 w(7) + 2.09336592 w(6) - 1.6187611 w(5)
       - 0.39468138 w(4) - 1.04971249 w(3) + 0.30777589 w(2) + 0.54983728 w(1)
       - 0.20373369 w(0) - z - pm(16) <= -2.75853102
 c131: tp(16) - pp(16) <= 0
 c132: tp(16) - 16 s(16) <= 0
 c133: tp(16) - pp(16) - 16 s(16) >= -16
 c134: tm(16) - pm(16) <= 0
 c135: tm(16) - 255 s(16) <= 0
 c136: tm(16) - pm(16) - 255 s(16) >= -255
 c137: 0.62416434 w(8) + 1.00142436 w(7) - 0.694873 w(6) + 1.35691525 w(5)
       + 1.31589444 w(4) - 0.70181445 w(3) + 0.75601262 w(2) - 0.04848673 w(1)
       - 0.25709828 w(0) + z - pp(17) <= 1.4282709
 c138: - 0.62416434 w(8) - 1.00142436 w(7) + 0.694873 w(6) - 1.35691525 w(5)
       - 1.31589444 w(4) + 0.70181445 w(3) - 0.75601262 w(2) + 0.04848673 w(1)
       + 0.25709828 w(0) - z - pm(17) <= -1.0282709
 c139: tp(17) - pp(17) <= 0
 c140: tp(17) - 16 s(17) <= 0
 c141: tp(17) - pp(17) - 16 s(17) >= -16
 c142: tm(17) - pm(17) <= 0
 c143: tm(17) - 255 s(17) <= 0
 c144: tm(17) - pm(17) - 255 s(17) >= -255
 c145: 0.3660582 w(8) - 1.21937992 w(7) + 1.02468577 w(6) + 0.1419345 w(5)
       - 0.69451052 w(4) - 0.1152376 w(3) + 0.44375071 w(2) + 0.27034875 w(1)
       + 0.68943311 w(0) + z - pp(18) <= 0.66104432
 c146: - 0.3660582 w(8) + 1.21937992 w(7) - 1.02468577 w(6) - 0.1419345 w(5)
       + 0.69451052 w(4) + 0.1152376 w(3) - 0.44375071 w(2) - 0.27034875 w(1)
       - 0.68943311 w(0) - z - pm(18) <= -0.26104432
 c147: tp(18) - pp(18) <= 0
 c148: tp(18) - 16 s(18) <= 0
 c149: tp(18) - pp(18) - 16 s(18) >= -16
 c150: tm(18) - pm(18) <= 0
 c151: tm(18) - 255 s(18) <= 0
 c152: tm(18) - pm(18) - 255 s(18) >= -255
 c153: - 0.10316786 w(8) - 1.23358503 w(7) - 1.27883014 w(6) + 0.26894835 w(5)
       - 0.20885022 w(4) + 0.70520632 w(3) + 0.52343355 w(2) - 1.56253111 w(1)
       + 1.5387364 w(0) + z - pp(19) <= 1.01587375
 c154: 0.10316786 w(8) + 1.23358503 w(7) + 1.27883014 w(6) - 0.26894835 w(5)
       + 0.20885022 w(4) - 0.70520632 w(3) - 0.52343355 w(2) + 1.56253111 w(1)
       - 1.5387364 w(0) - z - pm(19) <= -0.61587375
 c155: tp(19) - pp(19) <= 0
 c156: tp(19) - 16 s(19) <= 0
 c157: tp(19) - pp(19) - 16 s(19) >= -16
 c158: tm(19) - pm(19) <= 0
 c159: tm(19) - 255 s(19) <= 0
 c160: tm(19) - pm(19) - 255 s(19) >= -255
 c161: 0.64474024 w(8) - 1.10093168 w(7) - 2.04277568 w(6) - 1.0772239 w(5)
       + 1.23749046 w(4) - 1.84095049 w(3) + 1.42671831 w(2) + 1.2252545 w(1)
       - 0.96377815 w(0) + z - pp(20) <= 0.42194444
 c162: - 0.64474024 w(8) + 1.10093168 w(7) + 2.04277568 w(6) + 1.0772239 w(5)
       - 1.23749046 w(4) + 1.84095049 w(3) - 1.42671831 w(2) - 1.2252545 w(1)
       + 0.96377815 w(0) - z - pm(20) <= -0.02194444
 c163: tp(20) - pp(20) <= 0
 c164: tp(20) - 16 s(20) <= 0
 c165: tp(20) - pp(20) - 16 s(20) >= -16
 c166: tm(20) - pm(20) <= 0
 c167: tm(20) - 255 s(20) <= 0
 c168: tm(20) - pm(20) - 255 s(20) >= -255
 c169: 1.31947332 w(8) + 0.05439171 w(7) + 0.53349248 w(6) - 1.14668171 w(5)
       + 0.66664688 w(4) - 0.93429007 w(3) - 0.49036173 w(2) + 0.19744557 w(1)
       - 1.08819965 w(0) + z - pp(21) <= -2.18203076
 c170: - 1.31947332 w(8) - 0.05439171 w(7) - 0.53349248 w(6) + 1.14668171 w(5)
       - 0.66664688 w(4) + 0.93429007 w(3) + 0.49036173 w(2) - 0.19744557 w(1)
       + 1.08819965 w(0) - z - pm(21) <= 2.58203076
 c171: tp(21) - pp(21) <= 0
 c172: tp(21) - 16 s(21) <= 0
 c173: tp(21) - pp(21) - 16 s(21) >= -16
 c174: tm(21) - pm(21) <= 0
 c175: tm(21) - 255 s(21) <= 0
 c176: tm(21) - pm(21) - 255 s(21) >= -255
 c177: - 1.22730338 w(8) + 0.43715927 w(7) - 0.19848866 w(6) - 0.03979446 w(5)
       - 0.61509855 w(4) - 1.99829815 w(3) + 2.12668012 w(2) + 0.65785918 w(1)
       + 1.46294578 w(0) + z - pp(22) <= 1.82132313
 c178: 1.22730338 w(8) - 0.43715927 w(7) + 0.19848866 w(6) + 0.03979446 w(5)
       + 0.61509855 w(4) + 1.99829815 w(3) - 2.12668012 w(2) - 0.65785918 w(1)
       - 1.46294578 w(0) - z - pm(22) <= -1.42132313
 c179: tp(22) - pp(22) <= 0
 c180: tp(22) - 16 s(22) <= 0
 c181: tp(22) - pp(22) - 16 s(22) >= -16
 c182: tm(22) - pm(22) <= 0
 c183: tm(22) - 255 s(22) <= 0
 c184: tm(22) - pm(22) - 255 s(22) >= -255
 c185: 1.25089969 w(8) - 1.4864003 w(7) + 1.42325299 w(6) - 0.46765837 w(5)
       + 1.72563418 w(4) - 1.38234606 w(3) + 0.06539531 w(2) + 0.61497091 w(1)
       - 0.55789465 w(0) + z - pp(23) <= -0.47531595
 c186: - 1.25089969 w(8) + 1.4864003 w(7) - 1.42325299 w(6) + 0.46765837 w(5)
       - 1.72563418 w(4) + 1.38234606 w(3) - 0.06539531 w(2) - 0.61497091 w(1)
       + 0.55789465 w(0) - z - pm(23) <= 0.87531595
 c187: tp(23) - pp(23) <= 0
 c188: tp(23) - 16 s(23) <= 0
 c189: tp(23) - pp(23) - 16 s(23) >= -16
 c190: tm(23) - pm(23) <= 0
 c191: tm(23) - 255 s(23) <= 0
 c192: tm(23) - pm(23) - 255 s(23) >= -255
 c193: - 0.35663074 w(8) + 0.14450345 w(7) - 0.12384879 w(6) + 0.88408726 w(5)
       - 1.42787654 w(4) - 0.14471175 w(3) + 0.02865099 w(2) + 0.05104582 w(1)
       - 1.45643818 w(0) + z - pp(24) <= -2.926166
 c194: 0.35663074 w(8) - 0.14450345 w(7) + 0.12384879 w(6) - 0.88408726 w(5)
       + 1.42787654 w(4) + 0.14471175 w(3) - 0.02865099 w(2) - 0.05104582 w(1)
       + 1.45643818 w(0) - z - pm(24) <= 3.326166
 c195: tp(24) - pp(24) <= 0
 c196: tp(24) - 16 s(24) <= 0
 c197: tp(24) - pp(24) - 16 s(24) >= -16
 c198: tm(24) - pm(24) <= 0
 c199: tm(24) - 255 s(24) <= 0
 c200: tm(24) - pm(24) - 255 s(24) >= -255
 c201: 0.69806754 w(8) - 0.71302835 w(7) - 2.28150789 w(6) + 1.50851725 w(5)
       - 0.65426278 w(4) + 0.4083512 w(3) + 0.33393429 w(2) - 0.76488963 w(1)
       - 0.50542522 w(0) + z - pp(25) <= 1.63663239
 c202: - 0.69806754 w(8) + 0.71302835 w(7) + 2.28150789 w(6) - 1.50851725 w(5)
       + 0.65426278 w(4) - 0.4083512 w(3) - 0.33393429 w(2) + 0.76488963 w(1)
       + 0.50542522 w(0) - z - pm(25) <= -1.23663239
 c203: tp(25) - pp(25) <= 0
 c204: tp(25) - 16 s(25) <= 0
 c205: tp(25) - pp(25) - 16 s(25) >= -16
 c206: tm(25) - pm(25) <= 0
 c207: tm(25) - 255 s(25) <= 0
 c208: tm(25) - pm(25) - 255 s(25) >= -255
 c209: - 0.44032248 w(8) + 0.91010194 w(7) - 1.10674468 w(6) - 1.00001935 w(5)
       + 1.17871663 w(4) + 1.16747909 w(3) - 0.85352236 w(2) - 1.05597826 w(1)
       - 1.66910108 w(0) + z - pp(26) <= -2.36621207
 c210: 0.44032248 w(8) - 0.91010194 w(7) + 1.10674468 w(6) + 1.00001935 w(5)
       - 1.17871663 w(4) - 1.16747909 w(3) + 0.85352236 w(2) + 1.05597826 w(1)
       + 1.66910108 w(0) - z - pm(26) <= 2.76621207
 c211: tp(26) - pp(26) <= 0
 c212: tp(26) - 16 s(26) <= 0
 c213: tp(26) - pp(26) - 16 s(26) >= -16
 c214: tm(26) - pm(26) <= 0
 c215: tm(26) - 255 s(26) <= 0
 c216: tm(26) - pm(26) - 255 s(26) >= -255
 c217: 0.45122461 w(8) - 1.04962866 w(7) - 1.47553739 w(6) - 0.42716607 w(5)
       - 0.69954011 w(4) - 0.19305328 w(3) + 0.2046703 w(2) - 1.08462418 w(1)
       - 0.5810681 w(0) + z - pp(27) <= -2.01347482
 c218: - 0.45122461 w(8) + 1.04962866 w(7) + 1.47553739 w(6) + 0.42716607 w(5)
       + 0.69954011 w(4) + 0.19305328 w(3) - 0.2046703 w(2) + 1.08462418 w(1)
       + 0.5810681 w(0) - z - pm(27) <= 2.41347482
 c219: tp(27) - pp(27) <= 0
 c220: tp(27) - 16 s(27) <= 0
 c221: tp(27) - pp(27) - 16 s(27) >= -16
 c222: tm(27) - pm(27) <= 0
 c223: tm(27) - 255 s(27) <= 0
 c224: tm(27) - pm(27) - 255 s(27) >= -255
 c225: - 0.11265456 w(8) + 0.36387231 w(7) + 0.35118346 w(6) + 0.76468992 w(5)
       + 0.10234434 w(4) + 0.75925688 w(3) - 1.41296067 w(2) - 0.26995234 w(1)
       - 1.68990777 w(0) + z - pp(28) <= -1.62637096
 c226: 0.11265456 w(8) - 0.36387231 w(7) - 0.35118346 w(6) - 0.76468992 w(5)
       - 0.10234434 w(4) - 0.75925688 w(3) + 1.41296067 w(2) + 0.26995234 w(1)
       + 1.68990777 w(0) - z - pm(28) <= 2.02637096
 c227: tp(28) - pp(28) <= 0
 c228: tp(28) - 16 s(28) <= 0
 c229: tp(28) - pp(28) - 16 s(28) >= -16
 c230: tm(28) - pm(28) <= 0
 c231: tm(28) - 255 s(28) <= 0
 c232: tm(28) - pm(28) - 255 s(28) >= -255
 c233: - 0.31406722 w(8) - 1.46657153 w(7) - 0.42161999 w(6) - 1.27549793 w(5)
       - 0.2701255 w(4) + 0.37310977 w(3) + 0.04937957 w(2) + 0.75713891 w(1)
       + 0.41260116 w(0) + z - pp(29) <= 0.67179975
 c234: 0.31406722 w(8) + 1.46657153 w(7) + 0.42161999 w(6) + 1.27549793 w(5)
       + 0.2701255 w(4) - 0.37310977 w(3) - 0.04937957 w(2) - 0.75713891 w(1)
       - 0.41260116 w(0) - z - pm(29) <= -0.27179975
 c235: tp(29) - pp(29) <= 0
 c236: tp(29) - 16 s(29) <= 0
 c237: tp(29) - pp(29) - 16 s(29) >= -16
 c238: tm(29) - pm(29) <= 0
 c239: tm(29) - 255 s(29) <= 0
 c240: tm(29) - pm(29) - 255 s(29) >= -255
 c241: - 0.91375431 w(8) + 0.86660532 w(7) + 1.28900163 w(6) + 1.6200081 w(5)
       + 0.22595776 w(4) - 0.28799284 w(3) - 0.60412718 w(2) - 1.56027916 w(1)
       - 0.44617474 w(0) + z - pp(30) <= -1.25166105
 c242: 0.91375431 w(8) - 0.86660532 w(7) - 1.28900163 w(6) - 1.6200081 w(5)
       - 0.22595776 w(4) + 0.28799284 w(3) + 0.60412718 w(2) + 1.56027916 w(1)
       + 0.44617474 w(0) - z - pm(30) <= 1.65166105
 c243: tp(30) - pp(30) <= 0
 c244: tp(30) - 16 s(30) <= 0
 c245: tp(30) - pp(30) - 16 s(30) >= -16
 c246: tm(30) - pm(30) <= 0
 c247: tm(30) - 255 s(30) <= 0
 c248: tm(30) - pm(30) - 255 s(30) >= -255
 c249: 0.39596604 w(8) + 0.03634478 w(7) - 0.68973763 w(6) - 0.78236663 w(5)
       + 0.13568434 w(4) - 0.53032442 w(3) + 0.57409527 w(2) - 0.51999867 w(1)
       + 0.66153434 w(0) + z - pp(31) <= -0.04231669
 c250: - 0.39596604 w(8) - 0.03634478 w(7) + 0.68973763 w(6) + 0.78236663 w(5)
       - 0.13568434 w(4) + 0.53032442 w(3) - 0.57409527 w(2) + 0.51999867 w(1)
       - 0.66153434 w(0) - z - pm(31) <= 0.44231669
 c251: tp(31) - pp(31) <= 0
 c252: tp(31) - 16 s(31) <= 0
 c253: tp(31) - pp(31) - 16 s(31) >= -16
 c254: tm(31) - pm(31) <= 0
 c255: tm(31) - 255 s(31) <= 0
 c256: tm(31) - pm(31) - 255 s(31) >= -255
 c257: 0.32328952 w(8) + 0.17077501 w(7) + 1.87577885 w(6) - 1.37622762 w(5)
       - 1.13848797 w(4) - 0.87820154 w(3) + 0.35243923 w(2) - 0.44565527 w(1)
       + 1.05177749 w(0) + z - pp(32) <= -1.97320674
 c258: - 0.32328952 w(8) - 0.17077501 w(7) - 1.87577885 w(6) + 1.37622762 w(5)
       + 1.13848797 w(4) + 0.87820154 w(3) - 0.35243923 w(2) + 0.44565527 w(1)
       - 1.05177749 w(0) - z - pm(32) <= 2.37320674
 c259: tp(32) - pp(32) <= 0
 c260: tp(32) - 16 s(32) <= 0
 c261: tp(32) - pp(32) - 16 s(32) >= -16
 c262: tm(32) - pm(32) <= 0
 c263: tm(32) - 255 s(32) <= 0
 c264: tm(32) - pm(32) - 255 s(32) >= -255
 c265: - 0.92561457 w(8) + 0.12861361 w(7) + 1.07851733 w(6) + 0.7247045 w(5)
       - 0.75428947 w(4) + 1.94255406 w(3) + 0.44067472 w(2) + 1.77008667 w(1)
       + 0.81058903 w(0) + z - pp(33) <= 5.5143283
 c266: 0.92561457 w(8) - 0.12861361 w(7) - 1.07851733 w(6) - 0.7247045 w(5)
       + 0.75428947 w(4) - 1.94255406 w(3) - 0.44067472 w(2) - 1.77008667 w(1)
       - 0.81058903 w(0) - z - pm(33) <= -5.1143283
 c267: tp(33) - pp(33) <= 0
 c268: tp(33) - 16 s(33) <= 0
 c269: tp(33) - pp(33) - 16 s(33) >= -16
 c270: tm(33) - pm(33) <= 0
 c271: tm(33) - 255 s(33) <= 0
 c272: tm(33) - pm(33) - 255 s(33) >= -255
 c273: - 0.77638716 w(8) - 0.26525974 w(7) + 1.19819417 w(6) + 0.17904105 w(5)
       - 0.77878937 w(4) + 1.04032402 w(3) + 0.78235723 w(2) - 0.68144839 w(1)
       - 2.21931592 w(0) + z - pp(34) <= -3.83242763
 c274: 0.77638716 w(8) + 0.26525974 w(7) - 1.19819417 w(6) - 0.17904105 w(5)
       + 0.77878937 w(4) - 1.04032402 w(3) - 0.78235723 w(2) + 0.68144839 w(1)
       + 2.21931592 w(0) - z - pm(34) <= 4.23242763
 c275: tp(34) - pp(34) <= 0
 c276: tp(34) - 16 s(34) <= 0
 c277: tp(34) - pp(34) - 16 s(34) >= -16
 c278: tm(34) - pm(34) <= 0
 c279: tm(34) - 255 s(34) <= 0
 c280: tm(34) - pm(34) - 255 s(34) >= -255
 c281: 0.57864836 w(8) - 1.77114875 w(7) + 1.16622053 w(6) + 0.46323795 w(5)
       + 1.34365266 w(4) - 0.2582664 w(3) + 0.02768417 w(2) + 0.20754848 w(1)
       + 0.33048282 w(0) + z - pp(35) <= 2.25836759
 c282: - 0.57864836 w(8) + 1.77114875 w(7) - 1.16622053 w(6) - 0.46323795 w(5)
       - 1.34365266 w(4) + 0.2582664 w(3) - 0.02768417 w(2) - 0.20754848 w(1)
       - 0.33048282 w(0) - z - pm(35) <= -1.85836759
 c283: tp(35) - pp(35) <= 0
 c284: tp(35) - 16 s(35) <= 0
 c285: tp(35) - pp(35) - 16 s(35) >= -16
 c286: tm(35) - pm(35) <= 0
 c287: tm(35) - 255 s(35) <= 0
 c288: tm(35) - pm(35) - 255 s(35) >= -255
 c289: - 1.16870383 w(8) + 0.62788753 w(7) + 0.31749952 w(6) - 1.09447064 w(5)
       - 0.43879044 w(4) - 2.36943574 w(3) + 0.10677772 w(2) + 0.99747764 w(1)
       + 1.21287328 w(0) + z - pp(36) <= -1.05361145
 c290: 1.16870383 w(8) - 0.62788753 w(7) - 0.31749952 w(6) + 1.09447064 w(5)
       + 0.43879044 w(4) + 2.36943574 w(3) - 0.10677772 w(2) - 0.99747764 w(1)
       - 1.21287328 w(0) - z - pm(36) <= 1.45361145
 c291: tp(36) - pp(36) <= 0
 c292: tp(36) - 16 s(36) <= 0
 c293: tp(36) - pp(36) - 16 s(36) >= -16
 c294: tm(36) - pm(36) <= 0
 c295: tm(36) - 255 s(36) <= 0
 c296: tm(36) - pm(36) - 255 s(36) >= -255
 c297: 1.17345748 w(8) + 0.13198995 w(7) + 0.90836634 w(6) + 0.80790714 w(5)
       - 2.00029983 w(4) + 0.0780704 w(3) + 0.1116136 w(2) - 1.47167778 w(1)
       + 0.39933652 w(0) + z - pp(37) <= -1.3850225
 c298: - 1.17345748 w(8) - 0.13198995 w(7) - 0.90836634 w(6) - 0.80790714 w(5)
       + 2.00029983 w(4) - 0.0780704 w(3) - 0.1116136 w(2) + 1.47167778 w(1)
       - 0.39933652 w(0) - z - pm(37) <= 1.7850225
 c299: tp(37) - pp(37) <= 0
 c300: tp(37) - 16 s(37) <= 0
 c301: tp(37) - pp(37) - 16 s(37) >= -16
 c302: tm(37) - pm(37) <= 0
 c303: tm(37) - 255 s(37) <= 0
 c304: tm(37) - pm(37) - 255 s(37) >= -255
 c305: 1.50378785 w(8) - 0.02096423 w(7) + 1.95600889 w(6) - 0.97517726 w(5)
       - 0.48812557 w(4) + 0.31391359 w(3) + 1.25862058 w(2) - 0.44601318 w(1)
       - 0.71948074 w(0) + z - pp(38) <= -0.69353222
 c306: - 1.50378785 w(8) + 0.02096423 w(7) - 1.95600889 w(6) + 0.97517726 w(5)
       + 0.48812557 w(4) - 0.31391359 w(3) - 1.25862058 w(2) + 0.44601318 w(1)
       + 0.71948074 w(0) - z - pm(38) <= 1.09353222
 c307: tp(38) - pp(38) <= 0
 c308: tp(38) - 16 s(38) <= 0
 c309: tp(38) - pp(38) - 16 s(38) >= -16
 c310: tm(38) - pm(38) <= 0
 c311: tm(38) - 255 s(38) <= 0
 c312: tm(38) - pm(38) - 255 s(38) >= -255
 c313: - 0.88378129 w(8) - 0.63666038 w(7) - 2.02848672 w(6) + 0.07181358 w(5)
       - 1.33676652 w(4) - 2.59449187 w(3) - 0.27924484 w(2) - 0.24677853 w(1)
       - 1.26047096 w(0) + z - pp(39) <= -6.17617006
 c314: 0.88378129 w(8) + 0.63666038 w(7) + 2.02848672 w(6) - 0.07181358 w(5)
       + 1.33676652 w(4) + 2.59449187 w(3) + 0.27924484 w(2) + 0.24677853 w(1)
       + 1.26047096 w(0) - z - pm(39) <= 6.57617006
 c315: tp(39) - pp(39) <= 0
 c316: tp(39) - 16 s(39) <= 0
 c317: tp(39) - pp(39) - 16 s(39) >= -16
 c318: tm(39) - pm(39) <= 0
 c319: tm(39) - 255 s(39) <= 0
 c320: tm(39) - pm(39) - 255 s(39) >= -255
 c321: 0.34829882 w(8) - 1.43309535 w(7) + 0.77434773 w(6) + 0.72510477 w(5)
       + 1.02358373 w(4) + 0.68281793 w(3) + 1.18453941 w(2) + 0.87288126 w(1)
       + 1.12472065 w(0) + z - pp(40) <= 5.91336293
 c322: - 0.34829882 w(8) + 1.43309535 w(7) - 0.77434773 w(6) - 0.72510477 w(5)
       - 1.02358373 w(4) - 0.68281793 w(3) - 1.18453941 w(2) - 0.87288126 w(1)
       - 1.12472065 w(0) - z - pm(40) <= -5.51336293
 c323: tp(40) - pp(40) <= 0
 c324: tp(40) - 16 s(40) <= 0
 c325: tp(40) - pp(40) - 16 s(40) >= -16
 c326: tm(40) - pm(40) <= 0
 c327: tm(40) - 255 s(40) <= 0
 c328: tm(40) - pm(40) - 255 s(40) >= -255
 c329: - 0.21151599 w(8) + 3.26532823 w(7) + 1.58421847 w(6) - 0.43619847 w(5)
       - 0.21550048 w(4) - 0.42551629 w(3) - 0.25084679 w(2) + 1.35658395 w(1)
       + 1.21795534 w(0) + z - pp(41) <= 1.66633851
 c330: 0.21151599 w(8) - 3.26532823 w(7) - 1.58421847 w(6) + 0.43619847 w(5)
       + 0.21550048 w(4) + 0.42551629 w(3) + 0.25084679 w(2) - 1.35658395 w(1)
       - 1.21795534 w(0) - z - pm(41) <= -1.26633851
 c331: tp(41) - pp(41) <= 0
 c332: tp(41) - 16 s(41) <= 0
 c333: tp(41) - pp(41) - 16 s(41) >= -16
 c334: tm(41) - pm(41) <= 0
 c335: tm(41) - 255 s(41) <= 0
 c336: tm(41) - pm(41) - 255 s(41) >= -255
 c337: - 0.38665059 w(8) - 0.15991161 w(7) + 0.22311014 w(6) - 2.22145304 w(5)
       - 0.57811847 w(4) - 0.76573282 w(3) + 2.39017638 w(2) - 0.85342381 w(1)
       + 2.51843425 w(0) + z - pp(42) <= 1.95993131
 c338: 0.38665059 w(8) + 0.15991161 w(7) - 0.22311014 w(6) + 2.22145304 w(5)
       + 0.57811847 w(4) + 0.76573282 w(3) - 2.39017638 w(2) + 0.85342381 w(1)
       - 2.51843425 w(0) - z - pm(42) <= -1.55993131
 c339: tp(42) - pp(42) <= 0
 c340: tp(42) - 16 s(42) <= 0
 c341: tp(42) - pp(42) - 16 s(42) >= -16
 c342: tm(42) - pm(42) <= 0
 c343: tm(42) - 255 s(42) <= 0
 c344: tm(42) - pm(42) - 255 s(42) >= -255
 c345: 0.02053726 w(8) + 2.51064697 w(7) + 1.48773066 w(6) + 0.00272651 w(5)
       + 0.822379 w(4) - 1.58533157 w(3) - 0.55805908 w(2) + 1.14180876 w(1)
       + 0.86594158 w(0) + z - pp(43) <= 0.46652996
 c346: - 0.02053726 w(8) - 2.51064697 w(7) - 1.48773066 w(6) - 0.00272651 w(5)
       - 0.822379 w(4) + 1.58533157 w(3) + 0.55805908 w(2) - 1.14180876 w(1)
       - 0.86594158 w(0) - z - pm(43) <= -0.06652996
 c347: tp(43) - pp(43) <= 0
 c348: tp(43) - 16 s(43) <= 0
 c349: tp(43) - pp(43) - 16 s(43) >= -16
 c350: tm(43) - pm(43) <= 0
 c351: tm(43) - 255 s(43) <= 0
 c352: tm(43) - pm(43) - 255 s(43) >= -255
 c353: - 0.01616666 w(8) + 0.40214594 w(7) + 0.54995638 w(6) - 1.11198646 w(5)
       - 0.91818095 w(4) - 1.06945946 w(3) - 0.78719101 w(2) + 2.04728828 w(1)
       - 1.00045989 w(0) + z - pp(44) <= -0.98341863
 c354: 0.01616666 w(8) - 0.40214594 w(7) - 0.54995638 w(6) + 1.11198646 w(5)
       + 0.91818095 w(4) + 1.06945946 w(3) + 0.78719101 w(2) - 2.04728828 w(1)
       + 1.00045989 w(0) - z - pm(44) <= 1.38341863
 c355: tp(44) - pp(44) <= 0
 c356: tp(44) - 16 s(44) <= 0
 c357: tp(44) - pp(44) - 16 s(44) >= -16
 c358: tm(44) - pm(44) <= 0
 c359: tm(44) - 255 s(44) <= 0
 c360: tm(44) - pm(44) - 255 s(44) >= -255
 c361: - 0.29703422 w(8) - 0.26268661 w(7) + 0.16665699 w(6) + 0.12728505 w(5)
       + 0.42898443 w(4) + 0.28192238 w(3) + 0.7153242 w(2) - 0.73078717 w(1)
       + 0.60411299 w(0) + z - pp(45) <= 1.14356083
 c362: 0.29703422 w(8) + 0.26268661 w(7) - 0.16665699 w(6) - 0.12728505 w(5)
       - 0.42898443 w(4) - 0.28192238 w(3) - 0.7153242 w(2) + 0.73078717 w(1)
       - 0.60411299 w(0) - z - pm(45) <= -0.74356083
 c363: tp(45) - pp(45) <= 0
 c364: tp(45) - 16 s(45) <= 0
 c365: tp(45) - pp(45) - 16 s(45) >= -16
 c366: tm(45) - pm(45) <= 0
 c367: tm(45) - 255 s(45) <= 0
 c368: tm(45) - pm(45) - 255 s(45) >= -255
 c369: 0.64945556 w(8) + 0.28755405 w(7) + 1.68578611 w(6) - 0.59576446 w(5)
       - 1.10371197 w(4) + 2.62279144 w(3) - 0.44743079 w(2) + 0.66294803 w(1)
       + 0.0490591 w(0) + z - pp(46) <= 1.62300046
 c370: - 0.64945556 w(8) - 0.28755405 w(7) - 1.68578611 w(6) + 0.59576446 w(5)
       + 1.10371197 w(4) - 2.62279144 w(3) + 0.44743079 w(2) - 0.66294803 w(1)
       - 0.0490591 w(0) - z - pm(46) <= -1.22300046
 c371: tp(46) - pp(46) <= 0
 c372: tp(46) - 16 s(46) <= 0
 c373: tp(46) - pp(46) - 16 s(46) >= -16
 c374: tm(46) - pm(46) <= 0
 c375: tm(46) - 255 s(46) <= 0
 c376: tm(46) - pm(46) - 255 s(46) >= -255
 c377: - 0.015631 w(8) - 1.05684218 w(7) + 0.8641582 w(6) - 1.13397247 w(5)
       - 1.30283375 w(4) - 0.16161212 w(3) + 1.17314701 w(2) + 0.1858098 w(1)
       - 1.15980882 w(0) + z - pp(47) <= -1.73915252
 c378: 0.015631 w(8) + 1.05684218 w(7) - 0.8641582 w(6) + 1.13397247 w(5)
       + 1.30283375 w(4) + 0.16161212 w(3) - 1.17314701 w(2) - 0.1858098 w(1)
       + 1.15980882 w(0) - z - pm(47) <= 2.13915252
 c379: tp(47) - pp(47) <= 0
 c380: tp(47) - 16 s(47) <= 0
 c381: tp(47) - pp(47) - 16 s(47) >= -16
 c382: tm(47) - pm(47) <= 0
 c383: tm(47) - 255 s(47) <= 0
 c384: tm(47) - pm(47) - 255 s(47) >= -255
 c385: - 0.77661968 w(8) + 1.52095051 w(7) - 0.85553477 w(6) - 0.11195201 w(5)
       - 1.43978021 w(4) - 1.00122435 w(3) + 0.40186819 w(2) - 0.96990784 w(1)
       - 1.30896367 w(0) + z - pp(48) <= -4.7346978
 c386: 0.77661968 w(8) - 1.52095051 w(7) + 0.85553477 w(6) + 0.11195201 w(5)
       + 1.43978021 w(4) + 1.00122435 w(3) - 0.40186819 w(2) + 0.96990784 w(1)
       + 1.30896367 w(0) - z - pm(48) <= 5.1346978
 c387: tp(48) - pp(48) <= 0
 c388: tp(48) - 16 s(48) <= 0
 c389: tp(48) - pp(48) - 16 s(48) >= -16
 c390: tm(48) - pm(48) <= 0
 c391: tm(48) - 255 s(48) <= 0
 c392: tm(48) - pm(48) - 255 s(48) >= -255
 c393: - 1.12141965 w(8) + 0.8619242 w(7) + 1.22416602 w(6) + 0.24484233 w(5)
       + 0.31705856 w(4) + 0.39698314 w(3) - 0.76833739 w(2) - 1.98518198 w(1)
       - 0.84879837 w(0) + z - pp(49) <= -3.22583766
 c394: 1.12141965 w(8) - 0.8619242 w(7) - 1.22416602 w(6) - 0.24484233 w(5)
       - 0.31705856 w(4) - 0.39698314 w(3) + 0.76833739 w(2) + 1.98518198 w(1)
       + 0.84879837 w(0) - z - pm(49) <= 3.62583766
 c395: tp(49) - pp(49) <= 0
 c396: tp(49) - 16 s(49) <= 0
 c397: tp(49) - pp(49) - 16 s(49) >= -16
 c398: tm(49) - pm(49) <= 0
 c399: tm(49) - 255 s(49) <= 0
 c400: tm(49) - pm(49) - 255 s(49) >= -255
 c401: w(0) - 30 f(0) <= 0
 c402: w(0) + 10 f(0) >= 0
 c403: w(1) - 30 f(1) <= 0
 c404: w(1) + 10 f(1) >= 0
 c405: w(2) - 30 f(2) <= 0
 c406: w(2) + 10 f(2) >= 0
 c407: w(3) - 30 f(3) <= 0
 c408: w(3) + 10 f(3) >= 0
 c409: w(4) - 20 f(4) <= 0
 c410: w(4) + 20 f(4) >= 0
 c411: w(5) - 20 f(5) <= 0
 c412: w(5) + 20 f(5) >= 0
 c413: w(6) - 20 f(6) <= 0
 c414: w(6) + 20 f(6) >= 0
 c415: w(7) - 20 f(7) <= 0
 c416: w(7) + 20 f(7) >= 0
 c417: w(8) - 20 f(8) <= 0
 c418: w(8) + 20 f(8) >= 0
 c419: f(0) + f(1) + f(2) + f(3) + f(4) + f(5) + f(6) + f(7) + f(8) <= 4
 c420: s(0) + s(1) + s(2) + s(3) + s(4) + s(5) + s(6) + s(7) + s(8) + s(9)
       + s(10) + s(11) + s(12) + s(13) + s(14) + s(15) + s(16) + s(17) + s(18)
       + s(19) + s(20) + s(21) + s(22) + s(23) + s(24) + s(25) + s(26) + s(27)
       + s(28) + s(29) + s(30) + s(31) + s(32) + s(33) + s(34) + s(35) + s(36)
       + s(37) + s(38) + s(39) + s(40) + s(41) + s(42) + s(43) + s(44) + s(45)
       + s(46) + s(47) + s(48) + s(49) >= 45
Bounds
      w(8) Free
      w(7) Free
      w(6) Free
      w(5) Free
      w(4) Free
      w(3) Free
      w(2) Free
      w(1) Free
      w(0) Free
      z Free
 0 <= s(0) <= 1
 0 <= s(1) <= 1
 0 <= s(2) <= 1
 0 <= s(3) <= 1
 0 <= s(4) <= 1
 0 <= s(5) <= 1
 0 <= s(6) <= 1
 0 <= s(7) <= 1
 0 <= s(8) <= 1
 0 <= s(9) <= 1
 0 <= s(10) <= 1
 0 <= s(11) <= 1
 0 <= s(12) <= 1
 0 <= s(13) <= 1
 0 <= s(14) <= 1
 0 <= s(15) <= 1
 0 <= s(16) <= 1
 0 <= s(17) <= 1
 0 <= s(18) <= 1
 0 <= s(19) <= 1
 0 <= s(20) <= 1
 0 <= s(21) <= 1
 0 <= s(22) <= 1
 0 <= s(23) <= 1
 0 <= s(24) <= 1
 0 <= s(25) <= 1
 0 <= s(26) <= 1
 0 <= s(27) <= 1
 0 <= s(28) <= 1
 0 <= s(29) <= 1
 0 <= s(30) <= 1
 0 <= s(31) <= 1
 0 <= s(32) <= 1
 0 <= s(33) <= 1
 0 <= s(34) <= 1
 0 <= s(35) <= 1
 0 <= s(36) <= 1
 0 <= s(37) <= 1
 0 <= s(38) <= 1
 0 <= s(39) <= 1
 0 <= s(40) <= 1
 0 <= s(41) <= 1
 0 <= s(42) <= 1
 0 <= s(43) <= 1
 0 <= s(44) <= 1
 0 <= s(45) <= 1
 0 <= s(46) <= 1
 0 <= s(47) <= 1
 0 <= s(48) <= 1
 0 <= s(49) <= 1
 0 <= f(0) <= 1
 0 <= f(1) <= 1
 0 <= f(2) <= 1
 0 <= f(3) <= 1
 0 <= f(4) <= 1
 0 <= f(5) <= 1
 0 <= f(6) <= 1
 0 <= f(7) <= 1
 0 <= f(8) <= 1
Binaries
 s(0)  s(1)  s(2)  s(3)  s(4)  s(5)  s(6)  s(7)  s(8)  s(9)  s(10)  s(11) 
 s(12)  s(13)  s(14)  s(15)  s(16)  s(17)  s(18)  s(19)  s(20)  s(21)  s(22) 
 s(23)  s(24)  s(25)  s(26)  s(27)  s(28)  s(29)  s(30)  s(31)  s(32)  s(33) 
 s(34)  s(35)  s(36)  s(37)  s(38)  s(39)  s(40)  s(41)  s(42)  s(43)  s(44) 
 s(45)  s(46)  s(47)  s(48)  s(49)  f(0)  f(1)  f(2)  f(3)  f(4)  f(5)  f(6) 
 f(7)  f(8) 
End
